Optimal - objective value 180.00000000
      7 z_0_0_0_7                1         3.33333333333333
     52 z_0_0_4_6                1         -1.66666666666667
     74 z_0_2_1_2                1                       4
    107 z_0_2_3_9                1                       2
    141 z_0_4_1_10               1                       0
    208 z_0_7_1_12               1                       0
    270 z_1_0_1_9                1         1.66666666666667
    309 z_1_3_0_2                1                       0
    335 z_1_3_2_2                1                    -2.5
    373 z_1_6_0_7                1                       0
    439 z_1_7_1_4                1                      10
    481 z_1_7_4_7                1                       0
    491 z_2_0_0_4                1         -0.833333333333333
    504 z_2_0_1_4                1         0.833333333333332
    536 z_2_0_4_3                1         0.833333333333333
    561 z_2_4_1_5                1                       5
    594 z_2_4_3_12               1                      10
    620 z_2_6_0_12               1                       0
    634 z_2_6_2_3                1                       0
    727 z_2_7_4_11               1                       0
    772 z_3_1_3_4                1                       0
    785 z_3_1_4_4                1                       5
    814 z_3_2_1_7                1         -4.66666666666667
    839 z_3_2_3_6                1                       0
    863 z_3_3_0_7                1                      -5
    882 z_3_3_2_0                1                    -2.5
    919 z_3_5_0_4                1                       0
    937 z_3_5_2_9                1                       0
    967 z_3_6_0_2                1                       0
    990 z_3_6_2_2                1                      10
   1002 z_3_6_3_1                1                       0
   1024 z_4_0_0_3                1         -3.33333333333333
   1078 z_4_0_4_11               1         1.66666666666667
   1125 z_4_1_3_6                1         -1.66666666666667
   1132 z_4_1_4_0                1         -1.66666666666667
   1162 z_4_2_1_4                1                       2
   1195 z_4_2_3_11               1         5.66666666666667
   1219 z_4_3_0_12               1                       5
   1234 z_4_3_2_1                1                       0
   1284 z_4_4_1_8                1                       5
   1304 z_4_4_3_2                1         0.416666666666667
   1344 z_4_7_1_3                1                       0
   1389 z_4_7_4_9                1                       0
   1398 z_5_0_0_5                1         -1.66666666666667
   1418 z_5_0_1_12               1         3.33333333333333
   1512 z_5_1_4_8                1                       0
   1520 z_5_5_0_3                1         6.66666666666667
   1535 z_5_5_2_5                1                       0
   1591 z_5_6_2_1                1                      -5
   1605 z_5_6_3_2                1                      -5
   1625 z_6_0_0_2                1         -3.33333333333333
   1643 z_6_0_1_7                1         -8.33333333333333
   1724 z_6_1_3_3                1         -0.416666666666667
   1737 z_6_1_4_3                1         -0.416666666666667
   1757 z_6_3_0_10               1                     7.5
   1849 z_6_4_3_7                1         -4.58333333333333
   1868 z_6_5_0_0                1                       5
   1887 z_6_5_2_6                1                       0
   1952 z_6_6_2_11               1                      -5
   1957 z_6_6_3_3                1                      -5
   1980 z_7_0_0_6                1         -0.833333333333333
   2028 z_7_0_4_8                1         4.44089209850063e-16
   2077 z_7_1_3_5                1         1.66666666666667
   2097 z_7_1_4_12               1         -3.33333333333333
   2114 z_7_2_1_3                1                       0
   2144 z_7_2_3_7                1                      -2
   2206 z_7_4_3_10               1         -0.416666666666667
   2230 z_7_5_0_8                1         -6.66666666666667
   2237 z_7_5_2_2                1         -3.33333333333333
   2282 z_7_6_0_10               1                      10
   2301 z_7_6_2_6                1                       0
   2328 w_0_0                    1                       0
   2329 w_0_1                    1                       0
   2332 w_0_4                    1                       0
   2336 w_1_3                    1                      10
   2337 w_1_4                    1                       5
   2339 w_2_1                    1                       0
   2341 w_2_3                    1                       0
   2343 w_3_0                    1                     2.5
   2345 w_3_2                    1                      10
   2349 w_4_1                    1                       0
   2351 w_4_3                    1                       0
   2353 w_5_0                    1                      10
   2355 w_5_2                    1                      10
   2358 w_6_0                    1                       0
   2360 w_6_2                    1                       0
   2361 w_6_3                    1                      10
   2364 w_7_1                    1                       0
   2367 w_7_4                    1                      10
   2368 o_0_0_0    0.999999999998716                       0
   2369 o_0_0_1    0.999999999998715                       0
   2370 o_0_0_2    0.999999999998716                       0
   2371 o_0_0_3                  1                       0
   2372 o_0_0_4    0.999999999998716                       0
   2373 o_0_0_5                  1                       0
   2374 o_0_0_6                  1                    -2.5
   2375 o_0_1_0                  1         -1.66666666666667
   2376 o_0_1_1                  1                       0
   2377 o_0_1_2    1.00000000000035                       0
   2378 o_0_1_3                  1         -1.66666666666667
   2379 o_0_1_4    0.999999999999646                       0
   2380 o_0_1_5                  1                       0
   2381 o_0_1_6    0.999999999999646                       0
   2397 o_0_4_1    1.00000000000035                       0
   2398 o_0_4_2                  1                       0
   2399 o_0_4_3                  1         -3.33333333333333
   2400 o_0_4_4    0.999999999998358                       0
   2401 o_0_4_5    1.00000000000247                      -5
   2402 o_0_4_6    1.00000000000097                       0
   2427 o_1_3_3                  1                       0
   2428 o_1_3_4    1.00000000000431                       0
   2429 o_1_3_5     1.000000000004                       0
   2430 o_1_3_6    0.999999999999684                       0
   2431 o_1_4_0                  1                       0
   2432 o_1_4_1                  1                       0
   2433 o_1_4_2                  1                       0
   2434 o_1_4_3                  1                       0
   2435 o_1_4_4                  1                       0
   2436 o_1_4_5                  1                       0
   2437 o_1_4_6                  1                       0
   2445 o_2_1_0    0.999999999999333                       0
   2446 o_2_1_1     1.000000000001                       0
   2447 o_2_1_2     1.000000000001                       0
   2448 o_2_1_3    0.999999999999333                       0
   2449 o_2_1_4    0.999999999999333                       0
   2459 o_2_3_0                  1                       0
   2460 o_2_3_1                  1                       0
   2461 o_2_3_2                  1                       0
   2462 o_2_3_3                  1                       0
   2463 o_2_3_4                  1                       0
   2464 o_2_3_5                  1                       0
   2465 o_2_3_6                  1                       0
   2473 o_3_0_0                  1                       0
   2474 o_3_0_1                  1                       0
   2475 o_3_0_2                  1                       0
   2476 o_3_0_3                  1                       0
   2477 o_3_0_4                  1                       0
   2478 o_3_0_5                  1                       0
   2479 o_3_0_6                  1                       0
   2487 o_3_2_0                  1                       0
   2488 o_3_2_1                  1                       0
   2489 o_3_2_2                  1                       0
   2516 o_4_1_1    0.999999999996889                       0
   2517 o_4_1_2    0.9999999999995                       0
   2518 o_4_1_3                  1                       0
   2519 o_4_1_4                  1                       0
   2520 o_4_1_5    0.9999999999995                       0
   2529 o_4_3_0     1.000000000005                       0
   2530 o_4_3_1                  1                       0
   2531 o_4_3_2                  1         -0.416666666666667
   2532 o_4_3_3                  1                       0
   2533 o_4_3_4                  1                       0
   2534 o_4_3_5                  1                       0
   2535 o_4_3_6                  1                       0
   2543 o_5_0_0                  1                       0
   2544 o_5_0_1                  1                       0
   2545 o_5_0_2                  1                       0
   2546 o_5_0_3     1.000000000006                       0
   2547 o_5_0_4     1.000000000006                       0
   2558 o_5_2_1     1.000000000002                       0
   2559 o_5_2_2                  1                       0
   2560 o_5_2_3     1.000000000001                       0
   2561 o_5_2_4    1.00000000000107                       0
   2562 o_5_2_5                  1                       0
   2563 o_5_2_6     1.000000000001                       0
   2578 o_6_0_0    0.999999999999385                       0
   2579 o_6_0_1                  1                       0
   2580 o_6_0_2    0.999999999999385                       0
   2581 o_6_0_3    0.999999999999385                       0
   2582 o_6_0_4                  1                       0
   2583 o_6_0_5     1.000000000002                       0
   2584 o_6_0_6                  1                       0
   2593 o_6_2_1    0.999999999999385                       0
   2594 o_6_2_2                  1                       0
   2595 o_6_2_3    1.00000000000312                       0
   2596 o_6_2_4                  1                       0
   2597 o_6_2_5    1.0000000000005                       0
   2598 o_6_2_6    1.0000000000005                       0
   2601 o_6_3_2     1.000000000002                       0
   2602 o_6_3_3     1.000000000001                       0
   2603 o_6_3_4                  1                       0
   2623 o_7_1_3     1.000000000002                       0
   2624 o_7_1_4                  1                       0
   2625 o_7_1_5                  1                       0
   2626 o_7_1_6                  1                       0
   2641 o_7_4_0     1.000000000003                       0
   2642 o_7_4_1     1.000000000001                       0
   2643 o_7_4_2     1.000000000001                       0
   2644 o_7_4_3                  1                       0
   2645 o_7_4_4                  1                       0
   2646 o_7_4_5                  1                       0
   2648 e_0_0_0                  1                       0
   2649 e_0_0_1                  1                       0
   2657 e_0_1_2                  1                       0
   2658 e_0_1_3                  1                       0
   2659 e_0_1_4                  1                       0
   2660 e_0_1_5                  1                       0
   2661 e_0_1_6                  1                       0
   2671 e_0_3_2                  1                       0
   2672 e_0_3_3                  1                       0
   2682 e_0_4_6                  1                       0
   2683 e_1_0_0                  1                       0
   2684 e_1_0_1                  1                       0
   2685 e_1_0_2                  1                       0
   2692 e_1_1_2                  1                       0
   2693 e_1_1_3                  1                       0
   2694 e_1_1_4                  1                       0
   2699 e_1_2_2                  1                       0
   2711 e_1_4_0                  1                       0
   2712 e_1_4_1                  1                       0
   2722 e_2_0_4                  1                       0
   2723 e_2_0_5                  1                       0
   2724 e_2_0_6                  1                       0
   2729 e_2_1_4                  1                       0
   2730 e_2_1_5                  1                       0
   2735 e_2_2_3    1.00000000000189                       0
   2744 e_2_3_5                  1                       0
   2745 e_2_3_6                  1                       0
   2749 e_2_4_3                  1                       0
   2750 e_2_4_4                  1                       0
   2751 e_2_4_5                  1                       0
   2753 e_3_0_0                  1                       0
   2754 e_3_0_1                  1                       0
   2755 e_3_0_2                  1                       0
   2757 e_3_0_4                  1                       0
   2760 e_3_1_0                  1                       0
   2761 e_3_1_1                  1                       0
   2767 e_3_2_0                  1                       0
   2769 e_3_2_2                  1                       0
   2771 e_3_2_4                  1                       0
   2772 e_3_2_5                  1                       0
   2776 e_3_3_2                  1                       0
   2778 e_3_3_4                  1                       0
   2780 e_3_3_6                  1                       0
   2785 e_3_4_4                  1                       0
   2791 e_4_0_3                  1                       0
   2793 e_4_0_5                  1                       0
   2794 e_4_0_6                  1                       0
   2796 e_4_1_1                  1                       0
   2797 e_4_1_2                  1                       0
   2798 e_4_1_3                  1                       0
   2799 e_4_1_4                  1                       0
   2803 e_4_2_1                  1                       0
   2811 e_4_3_2                  1                       0
   2813 e_4_3_4                  1                       0
   2814 e_4_3_5                  1                       0
   2815 e_4_3_6                  1                       0
   2816 e_4_4_0                  1                       0
   2818 e_4_4_2                  1                       0
   2819 e_4_4_3    0.999999999999358                       0
   2820 e_4_4_4                  1                       0
   2821 e_4_4_5                  1                       0
   2826 e_5_0_3                  1                       0
   2828 e_5_0_5                  1                       0
   2835 e_5_1_5     1.000000000001                       0
   2836 e_5_1_6                  1                      -5
   2838 e_5_2_1    0.999999999999385                       0
   2843 e_5_2_6                  1                       0
   2847 e_5_3_3                  1                       0
   2852 e_5_4_1                  1                       0
   2853 e_5_4_2                  1                       0
   2858 e_6_0_0                  1                       0
   2860 e_6_0_2    0.999999999999385                       0
   2861 e_6_0_3    0.999999999999385                       0
   2862 e_6_0_4                  1                      -5
   2865 e_6_1_0    1.00000000000021                       0
   2866 e_6_1_1                  1                       0
   2873 e_6_2_1    0.99999999999796                       0
   2874 e_6_2_2    1.00000000000008                       0
   2876 e_6_2_4    1.00000000000107                       0
   2877 e_6_2_5     1.000000000001                      -5
   2879 e_6_3_0                  1         -0.416666666666667
   2880 e_6_3_1                  1         -0.416666666666667
   2882 e_6_3_3                  1                       0
   2883 e_6_3_4                  1                       0
   2889 e_6_4_3                  1                       0
   2894 e_7_0_1    0.999999999997431                       0
   2895 e_7_0_2                  1                       0
   2896 e_7_0_3     1.000000000006                       0
   2897 e_7_0_4     1.000000000006                       0
   2899 e_7_0_6                  1                       0
   2903 e_7_1_3    0.999999999998825                       0
   2910 e_7_2_3                  1                       0
   2913 e_7_2_6    1.0000000000005                       0
   2914 e_7_3_0                  1                       0
   2915 e_7_3_1                  1                       0
   2917 e_7_3_3    0.999999999994993                       0
   2918 e_7_3_4    1.00000000000048                       0
   2919 e_7_3_5    1.00000000000485         -3.33333333333333
   2922 e_7_4_1                  1         -3.33333333333333
   2923 e_7_4_2                  1                       0
   2926 e_7_4_5                  1                       0
   2927 e_7_4_6                  1                       0
   2929 af_0_0_0   0.999999999998716                       0
   2930 bf_0_0_1   0.999999999998715                       0
   2931 af_0_0_1   0.999999999998716                       0
   2932 bf_0_0_2   0.999999999998715                       0
   2933 af_0_0_2                 1                       0
   2934 bf_0_0_3   0.999999999997716                       0
   2935 af_0_0_3                 1                       0
   2936 bf_0_0_4                 1         -1.66666666666667
   2937 af_0_0_4                 1                       0
   2938 bf_0_0_5                 1                       0
   2939 af_0_0_5                 1                       0
   2940 bf_0_0_6                 1                       0
   2943 af_0_1_0                 1                       0
   2944 bf_0_1_1                 1                       0
   2945 af_0_1_1   1.00000000000035                       0
   2946 bf_0_1_2                 1                       0
   2947 af_0_1_2   1.00000000000035                       0
   2948 bf_0_1_3   1.00000000000035                       0
   2949 af_0_1_3   0.999999999999646                       0
   2950 bf_0_1_4                 1                       0
   2951 af_0_1_4   0.999999999999646                       0
   2952 bf_0_1_5   1.00000000000035                       0
   2953 af_0_1_5   0.999999999999646                       0
   2954 bf_0_1_6                 1                       0
   2985 af_0_4_0                 1                       0
   2987 af_0_4_1                 1                       0
   2988 bf_0_4_2                 1                       0
   2989 af_0_4_2                 1                       0
   2990 bf_0_4_3                 1                       0
   2991 af_0_4_3   0.999999999998358                       0
   2992 bf_0_4_4                 1                       0
   2993 af_0_4_4   0.999999999998358                       0
   2994 bf_0_4_5   0.999999999998358                       0
   2995 af_0_4_5   1.00000000000097                       0
   2996 bf_0_4_6                 1                       0
   3041 af_1_3_0                 1                       0
   3043 af_1_3_1    1.000000000001                       0
   3045 af_1_3_2                 1                       0
   3047 af_1_3_3   1.00000000000431                       0
   3048 bf_1_3_4    1.000000000001                       0
   3049 af_1_3_4    1.000000000003                       0
   3050 bf_1_3_5                 1                       0
   3051 af_1_3_5   0.999999999999684                       0
   3052 bf_1_3_6    1.000000000004                       0
   3055 af_1_4_0                 1                       0
   3056 bf_1_4_1                 1                       0
   3057 af_1_4_1                 1                       0
   3058 bf_1_4_2                 1                       0
   3059 af_1_4_2    0.999999999999                       0
   3060 bf_1_4_3    0.999999999999                       0
   3061 af_1_4_3                 1                       0
   3062 bf_1_4_4    0.999999999999                       0
   3063 af_1_4_4                 1                       0
   3064 bf_1_4_5                 1                       0
   3065 af_1_4_5                 1                       0
   3066 bf_1_4_6                 1                       0
   3083 af_2_1_0                 1                       0
   3084 bf_2_1_1                 1                       0
   3085 af_2_1_1    1.000000000001                       0
   3086 bf_2_1_2    0.999999999999                       0
   3087 af_2_1_2    0.999999999999                       0
   3088 bf_2_1_3                 1                       0
   3089 af_2_1_3                 1                       0
   3090 bf_2_1_4   0.999999999999333                       0
   3092 bf_2_1_5   0.999999999999333                       0
   3094 bf_2_1_6                 1                       0
   3111 af_2_3_0                 1                       0
   3112 bf_2_3_1    1.000000000001                       0
   3113 af_2_3_1                 1                       0
   3114 bf_2_3_2                 1                       0
   3115 af_2_3_2    0.999999999999                       0
   3116 bf_2_3_3                 1                       0
   3117 af_2_3_3                 1                       0
   3118 bf_2_3_4                 1                       0
   3119 af_2_3_4                 1                       0
   3120 bf_2_3_5                 1                       0
   3121 af_2_3_5    1.000000000001                       0
   3122 bf_2_3_6                 1                       0
   3139 af_3_0_0                 1                       0
   3140 bf_3_0_1                 1                       0
   3141 af_3_0_1                 1                       0
   3142 bf_3_0_2                 1                       0
   3143 af_3_0_2                 1                       0
   3144 bf_3_0_3                 1                       0
   3145 af_3_0_3                 1                       0
   3146 bf_3_0_4                 1                    -2.5
   3147 af_3_0_4                 1                       0
   3148 bf_3_0_5                 1                       0
   3149 af_3_0_5                 1                       0
   3150 bf_3_0_6                 1                       0
   3167 af_3_2_0                 1                       0
   3168 bf_3_2_1                 1                       0
   3169 af_3_2_1                 1                       0
   3170 bf_3_2_2    0.999999999999                       0
   3172 bf_3_2_3    0.999999999998                       0
   3174 bf_3_2_4    1.000000000002                       0
   3176 bf_3_2_5    1.000000000001                       0
   3178 bf_3_2_6                 1                       0
   3223 af_4_1_0                 1                       0
   3225 af_4_1_1   0.9999999999995                       0
   3226 bf_4_1_2                 1                       0
   3227 af_4_1_2    0.999999999999                       0
   3228 bf_4_1_3                 1                       0
   3229 af_4_1_3                 1                       0
   3230 bf_4_1_4                 1                       0
   3231 af_4_1_4                 1                       0
   3232 bf_4_1_5                 1                       0
   3234 bf_4_1_6   0.9999999999995                       0
   3251 af_4_3_0                 1                       0
   3252 bf_4_3_1    1.000000000005                       0
   3253 af_4_3_1                 1                       0
   3254 bf_4_3_2    1.000000000004                       0
   3255 af_4_3_2                 1                       0
   3256 bf_4_3_3    1.000000000003                       0
   3257 af_4_3_3                 1                       0
   3258 bf_4_3_4    1.000000000002                       0
   3259 af_4_3_4                 1                       0
   3260 bf_4_3_5    1.000000000001                       0
   3261 af_4_3_5                 1                       0
   3262 bf_4_3_6                 1                       0
   3279 af_5_0_0    1.000000000002                       0
   3280 bf_5_0_1                 1                       0
   3281 af_5_0_1    1.000000000004                       0
   3282 bf_5_0_2                 1                       0
   3283 af_5_0_2    1.000000000006                       0
   3284 bf_5_0_3                 1                       0
   3285 af_5_0_3    1.000000000005                       0
   3286 bf_5_0_4    1.000000000003                       0
   3288 bf_5_0_5    1.000000000001                       0
   3290 bf_5_0_6                 1         -6.66666666666667
   3307 af_5_2_0                 1                       0
   3309 af_5_2_1    1.000000000001                       0
   3310 bf_5_2_2    1.000000000001                       0
   3311 af_5_2_2    0.999999999999                       0
   3312 bf_5_2_3    0.999999999999                       0
   3313 af_5_2_3                 1                       0
   3314 bf_5_2_4                 1                       0
   3315 af_5_2_4                 1                       0
   3316 bf_5_2_5                 1                       0
   3317 af_5_2_5                 1                       0
   3318 bf_5_2_6    0.999999999999                       0
   3332 bf_5_3_6                 1                       0
   3349 af_6_0_0                 1                       0
   3350 bf_6_0_1                 1                       0
   3351 af_6_0_1   0.999999999999385                       0
   3352 bf_6_0_2    0.999999999999                       0
   3353 af_6_0_2    0.999999999997                       0
   3354 bf_6_0_3   1.00000000000038                       0
   3355 af_6_0_3    0.999999999999                       0
   3356 bf_6_0_4   0.999999999999385                       0
   3357 af_6_0_4                 1                       0
   3358 bf_6_0_5                 1                       0
   3359 af_6_0_5                 1                       0
   3360 bf_6_0_6    1.000000000002                       0
   3377 af_6_2_0                 1                       0
   3379 af_6_2_1                 1                       0
   3380 bf_6_2_2    1.000000000001                       0
   3381 af_6_2_2                 1                       0
   3382 bf_6_2_3                 1                       0
   3383 af_6_2_3                 1                       0
   3384 bf_6_2_4   1.00000000000312                       0
   3385 af_6_2_4   1.0000000000005                       0
   3386 bf_6_2_5    1.000000000001                       0
   3387 af_6_2_5   0.9999999999995                       0
   3388 bf_6_2_6    0.999999999999                       0
   3391 af_6_3_0                 1                       0
   3393 af_6_3_1                 1                       0
   3395 af_6_3_2    1.000000000002                       0
   3396 bf_6_3_3    1.000000000001                       0
   3397 af_6_3_3    1.000000000004                       0
   3398 bf_6_3_4                 1                       0
   3400 bf_6_3_5    0.999999999998                       0
   3402 bf_6_3_6    0.999999999996                       0
   3433 af_7_1_0                 1                       0
   3435 af_7_1_1    1.000000000001                       0
   3437 af_7_1_2    1.000000000002                       0
   3439 af_7_1_3    0.999999999998                       0
   3440 bf_7_1_4    1.000000000002                       0
   3441 af_7_1_4    0.999999999999                       0
   3442 bf_7_1_5                 1                       0
   3443 af_7_1_5                 1                       0
   3444 bf_7_1_6    0.999999999999                       0
   3475 af_7_4_0    0.999999999999                       0
   3476 bf_7_4_1    1.000000000002                       0
   3477 af_7_4_1                 1                       0
   3478 bf_7_4_2                 1                       0
   3479 af_7_4_2    0.999999999998                       0
   3480 bf_7_4_3                 1                       0
   3481 af_7_4_3                 1                       0
   3482 bf_7_4_4                 1                       0
   3483 af_7_4_4                 1                       0
   3484 bf_7_4_5                 1                       0
   3486 bf_7_4_6    0.999999999999                       0
